4 -1 0
4 -2 0
4 -3 0
4 -4 0
4 -5 0
4 -6 0
4 -7 0
4 -8 0
4 -9 0
4 -10 0
4 -11 0
4 -12 0
4 -13 0
4 -14 0
4 -15 0
4 -16 0
4 -17 0
4 -18 0
4 -19 0
4 -20 0
4 -21 0
4 -22 0
4 -23 0
4 -24 0
4 -25 0
4 -26 0
4 -27 0
4 -28 0
4 -29 0
4 -30 0
4 -31 0
4 -32 0
4 -33 0
4 -34 0
4 -35 0
4 -36 0
4 -37 0
4 -38 0
4 -39 0
4 -40 0
4 -41 0
4 -42 0
4 -43 0
4 -44 0
4 -45 0
4 -46 0
4 -47 0
4 -48 0
4 -49 0
4 -50 0
4 -51 0
4 -52 0
4 -53 0
4 -54 0
4 -55 0
4 -56 0
4 -57 0
4 -58 0
4 -59 0
4 -60 0
4 -61 0
4 -62 0
4 -63 0
4 -64 0
4 -65 0
4 -66 0
4 -67 0
4 -68 0
4 -69 0
4 -70 0
4 -71 0
4 -72 0
4 -73 0
4 -74 0
4 -75 0
4 -76 0
4 -77 0
4 -78 0
4 -79 0
4 -80 0
4 -81 0
4 -82 0
4 -83 0
4 -84 0
4 -85 0
4 -86 0
4 -87 0
4 -88 0
4 -89 0
4 -90 0
4 -91 0
4 -92 0
4 -93 0
4 -94 0
4 -95 0
4 -96 0
4 -97 0
4 -98 0
4 -99 0
4 -100 0
4 -101 0
4 -102 0
4 -103 0
4 -104 0
4 -105 0
4 -106 0
4 -107 0
4 -108 0
4 -109 0
4 -110 0
4 -111 0
4 -112 0
4 -113 0
4 -114 0
4 -115 0
4 -116 0
4 -117 0
4 -118 0
4 -119 0
4 -120 0
4 -121 0
4 -122 0
4 -123 0
4 -124 0
4 -125 0
4 -126 0
4 -127 0
4 -128 0
4 -129 0
4 -130 0
4 -131 0
4 -132 0
4 -133 0
4 -134 0
4 -135 0
4 -136 0
4 -137 0
4 -138 0
4 -139 0
4 -140 0
4 -141 0
4 -142 0
4 -143 0
4 -144 0
4 -145 0
4 -146 0
4 -147 0
4 -148 0
4 -149 0
4 -150 0
4 -151 0
4 -152 0
4 -153 0
4 -154 0
4 -155 0
4 -156 0
4 -157 0
4 -158 0
4 -159 0
4 -160 0
4 -161 0
4 -162 0
4 -163 0
4 -164 0
4 -165 0
4 -166 0
4 -167 0
4 -168 0
4 -169 0
4 -170 0
4 -171 0
4 -172 0
4 -173 0
4 -174 0
4 -175 0
4 -176 0
4 -177 0
4 -178 0
4 -179 0
4 -180 0
4 -181 0
4 -182 0
4 -183 0
4 -184 0
4 -185 0
4 -186 0
4 -187 0
4 -188 0
4 -189 0
4 -190 0
4 -191 0
4 -192 0
4 -193 0
4 -194 0
4 -195 0
4 -196 0
4 -197 0
4 -198 0
4 -199 0
4 -200 0
4 -201 0
4 -202 0
4 -203 0
4 -204 0
4 -205 0
4 -206 0
4 -207 0
4 -208 0
4 -209 0
4 -210 0
4 -211 0
4 -212 0
4 -213 0
4 -214 0
4 -215 0
4 -216 0
4 -217 0
4 -218 0
4 -219 0
4 -220 0
4 -221 0
4 -222 0
4 -223 0
4 -224 0
4 -225 0
4 -226 0
4 -227 0
4 -228 0
4 -229 0
4 -230 0
4 -231 0
4 -232 0
4 -233 0
4 -234 0
4 -235 0
4 -236 0
4 -237 0
4 -238 0
4 -239 0
4 -240 0
4 -241 0
4 -242 0
4 -243 0
4 -244 0
4 -245 0
4 -246 0
4 -247 0
4 -248 0
4 -249 0
4 -250 0
4 -251 0
4 -252 0
4 -253 0
4 -254 0
4 -255 0
4 -256 0
4 -257 0
4 -258 0
4 -259 0
4 -260 0
4 -261 0
4 -262 0
4 -263 0
4 -264 0
4 -265 0
4 -266 0
4 -267 0
4 -268 0
4 -269 0
4 -270 0
4 -271 0
4 -272 0
4 -273 0
4 -274 0
4 -275 0
4 -276 0
4 -277 0
4 -278 0
4 -279 0
4 -280 0
4 -281 0
4 -282 0
4 -283 0
4 -284 0
4 -285 0
4 -286 0
4 -287 0
4 -288 0
4 -289 0
4 -290 0
4 -291 0
4 -292 0
4 -293 0
4 -294 0
4 -295 0
4 -296 0
4 -297 0
4 -298 0
4 -299 0
4 -300 0
4 -301 0
4 -302 0
4 -303 0
4 -304 0
4 -305 0
4 -306 0
4 -307 0
4 -308 0
4 -309 0
4 -310 0
4 -311 0
4 -312 0
4 -313 0
4 -314 0
4 -315 0
4 -316 0
4 -317 0
4 -318 0
4 -319 0
4 -320 0
4 -321 0
4 -322 0
4 -323 0
4 -324 0
4 -325 0
4 -326 0
4 -327 0
4 -328 0
4 -329 0
4 -330 0
4 -331 0
4 -332 0
4 -333 0
4 -334 0
4 -335 0
4 -336 0
4 -337 0
4 -338 0
4 -339 0
4 -340 0
4 -341 0
4 -342 0
4 -343 0
4 -344 0
4 -345 0
4 -346 0
4 -347 0
4 -348 0
4 -349 0
4 -350 0
4 -351 0
4 -352 0
4 -353 0
4 -354 0
4 -355 0
4 -356 0
4 -357 0
4 -358 0
4 -359 0
4 -360 0
4 -361 0
4 -362 0
4 -363 0
4 -364 0
4 -365 0
4 -366 0
4 -367 0
4 -368 0
4 -369 0
4 -370 0
4 -371 0
4 -372 0
4 -373 0
4 -374 0
4 -375 0
4 -376 0
4 -377 0
4 -378 0
4 -379 0
4 -380 0
4 -381 0
4 -382 0
4 -383 0
4 -384 0
4 -385 0
4 -386 0
4 -387 0
4 -388 0
4 -389 0
4 -390 0
4 -391 0
4 -392 0
4 -393 0
4 -394 0
4 -395 0
4 -396 0
4 -397 0
4 -398 0
4 -399 0
4 -400 0
4 -401 0
4 -402 0
4 -403 0
4 -404 0
4 -405 0
4 -406 0
4 -407 0
4 -408 0
4 -409 0
4 -410 0
4 -411 0
4 -412 0
4 -413 0
4 -414 0
4 -415 0
4 -416 0
4 -417 0
4 -418 0
4 -419 0
4 -420 0
4 -421 0
4 -422 0
4 -423 0
4 -424 0
4 -425 0
4 -426 0
4 -427 0
4 -428 0
4 -429 0
4 -430 0
4 -431 0
4 -432 0
4 -433 0
4 -434 0
4 -435 0
4 -436 0
4 -437 0
4 -438 0
4 -439 0
4 -440 0
4 -441 0
4 -442 0
4 -443 0
4 -444 0
4 -445 0
4 -446 0
4 -447 0
4 -448 0
4 -449 0
4 -450 0
4 -451 0
4 -452 0
4 -453 0
4 -454 0
4 -455 0
4 -456 0
4 -457 0
4 -458 0
4 -459 0
4 -460 0
4 -461 0
4 -462 0
4 -463 0
4 -464 0
4 -465 0
4 -466 0
4 -467 0
4 -468 0
4 -469 0
4 -470 0
4 -471 0
4 -472 0
4 -473 0
4 -474 0
4 -475 0
4 -476 0
4 -477 0
4 -478 0
4 -479 0
4 -480 0
4 -481 0
4 -482 0
4 -483 0
4 -484 0
4 -485 0
4 -486 0
4 -487 0
4 -488 0
4 -489 0
4 -490 0
4 -491 0
4 -492 0
4 -493 0
4 -494 0
4 -495 0
4 -496 0
4 -497 0
4 -498 0
4 -499 0
4 -500 0
4 -501 0
4 -502 0
4 -503 0
4 -504 0
4 -505 0
4 -506 0
4 -507 0
4 -508 0
4 -509 0
4 -510 0
4 -511 0
4 -512 0
4 -513 0
4 -514 0
4 -515 0
4 -516 0
4 -517 0
4 -518 0
4 -519 0
4 -520 0
4 -521 0
4 -522 0
4 -523 0
4 -524 0
4 -525 0
4 -526 0
4 -527 0
4 -528 0
4 -529 0
4 -530 0
4 -531 0
4 -532 0
4 -533 0
4 -534 0
4 -535 0
4 -536 0
4 -537 0
4 -538 0
4 -539 0
4 -540 0
4 -541 0
4 -542 0
4 -543 0
4 -544 0
4 -545 0
4 -546 0
4 -547 0
4 -548 0
4 -549 0
4 -550 0
4 -551 0
4 -552 0
4 -553 0
4 -554 0
4 -555 0
4 -556 0
4 -557 0
4 -558 0
4 -559 0
4 -560 0
4 -561 0
4 -562 0
4 -563 0
4 -564 0
4 -565 0
4 -566 0
4 -567 0
4 -568 0
4 -569 0
4 -570 0
4 -571 0
4 -572 0
4 -573 0
4 -574 0
4 -575 0
4 -576 0
4 -577 0
4 -578 0
4 -579 0
4 -580 0
4 -581 0
4 -582 0
4 -583 0
4 -584 0
4 -585 0
4 -586 0
4 -587 0
4 -588 0
4 -589 0
4 -590 0
4 -591 0
4 -592 0
4 -593 0
4 -594 0
4 -595 0
4 -596 0
4 -597 0
4 -598 0
4 -599 0
4 -600 0
4 -601 0
4 -602 0
4 -603 0
4 -604 0
4 -605 0
4 -606 0
4 -607 0
4 -608 0
4 -609 0
4 -610 0
4 -611 0
4 -612 0
4 -613 0
4 -614 0
4 -615 0
4 -616 0
4 -617 0
4 -618 0
4 -619 0
4 -620 0
4 -621 0
4 -622 0
4 -623 0
4 -624 0
4 -625 0
4 -626 0
4 -627 0
4 -628 0
4 -629 0
4 -630 0
4 -631 0
4 -632 0
4 -633 0
4 -634 0
4 -635 0
4 -636 0
4 -637 0
4 -638 0
4 -639 0
4 -640 0
4 -641 0
4 -642 0
4 -643 0
4 -644 0
4 -645 0
4 -646 0
4 -647 0
4 -648 0
4 -649 0
4 -650 0
4 -651 0
4 -652 0
4 -653 0
4 -654 0
4 -655 0
4 -656 0
4 -657 0
4 -658 0
4 -659 0
4 -660 0
4 -661 0
4 -662 0
4 -663 0
4 -664 0
4 -665 0
4 -666 0
4 -667 0
4 -668 0
4 -669 0
4 -670 0
4 -671 0
4 -672 0
h 1 2 4 7 11 16 0
h 1 3 5 8 12 17 0
h 1 22 23 25 28 32 0
h 1 37 38 40 43 47 0
h 2 3 6 9 13 18 0
h 2 22 24 26 29 33 0
h 2 62 63 65 68 72 0
h 3 37 39 41 44 48 0
h 3 62 64 66 69 73 0
h 22 37 52 53 55 58 0
h 22 62 77 78 80 83 0
h 37 62 87 88 90 93 0
h 4 5 6 10 14 19 0
h 4 23 24 27 30 34 0
h 4 103 104 106 109 113 0
h 5 38 39 42 45 49 0
h 5 103 105 107 110 114 0
h 23 38 52 54 56 59 0
h 23 103 118 119 121 124 0
h 38 103 128 129 131 134 0
h 6 63 64 67 70 74 0
h 6 104 105 108 111 115 0
h 24 63 77 79 81 84 0
h 24 104 118 120 122 125 0
h 63 104 144 145 147 150 0
h 39 64 87 89 91 94 0
h 39 105 128 130 132 135 0
h 64 105 144 146 148 151 0
h 52 77 87 97 98 100 0
h 52 118 128 138 139 141 0
h 77 118 144 154 155 157 0
h 87 128 144 160 161 163 0
h 7 8 9 10 15 20 0
h 7 25 26 27 31 35 0
h 7 169 170 172 175 179 0
h 8 40 41 42 46 50 0
h 8 169 171 173 176 180 0
h 25 40 53 54 57 60 0
h 25 169 184 185 187 190 0
h 40 169 194 195 197 200 0
h 9 65 66 67 71 75 0
h 9 170 171 174 177 181 0
h 26 65 78 79 82 85 0
h 26 170 184 186 188 191 0
h 65 170 210 211 213 216 0
h 41 66 88 89 92 95 0
h 41 171 194 196 198 201 0
h 66 171 210 212 214 217 0
h 53 78 88 97 99 101 0
h 53 184 194 204 205 207 0
h 78 184 210 220 221 223 0
h 88 194 210 226 227 229 0
h 10 106 107 108 112 116 0
h 10 172 173 174 178 182 0
h 27 106 119 120 123 126 0
h 27 172 185 186 189 192 0
h 106 172 235 236 238 241 0
h 42 107 129 130 133 136 0
h 42 173 195 196 199 202 0
h 107 173 235 237 239 242 0
h 54 119 129 138 140 142 0
h 54 185 195 204 206 208 0
h 119 185 235 245 246 248 0
h 129 195 235 251 252 254 0
h 67 108 145 146 149 152 0
h 67 174 211 212 215 218 0
h 108 174 236 237 240 243 0
h 79 120 145 154 156 158 0
h 79 186 211 220 222 224 0
h 120 186 236 245 247 249 0
h 145 211 236 260 261 263 0
h 89 130 146 160 162 164 0
h 89 196 212 226 228 230 0
h 130 196 237 251 253 255 0
h 146 212 237 260 262 264 0
h 97 138 154 160 166 167 0
h 97 204 220 226 232 233 0
h 138 204 245 251 257 258 0
h 154 220 245 260 266 267 0
h 160 226 251 260 269 270 0
h 11 12 13 14 15 21 0
h 11 28 29 30 31 36 0
h 11 273 274 276 279 283 0
h 12 43 44 45 46 51 0
h 12 273 275 277 280 284 0
h 28 43 55 56 57 61 0
h 28 273 288 289 291 294 0
h 43 273 298 299 301 304 0
h 13 68 69 70 71 76 0
h 13 274 275 278 281 285 0
h 29 68 80 81 82 86 0
h 29 274 288 290 292 295 0
h 68 274 314 315 317 320 0
h 44 69 90 91 92 96 0
h 44 275 298 300 302 305 0
h 69 275 314 316 318 321 0
h 55 80 90 98 99 102 0
h 55 288 298 308 309 311 0
h 80 288 314 324 325 327 0
h 90 298 314 330 331 333 0
h 14 109 110 111 112 117 0
h 14 276 277 278 282 286 0
h 30 109 121 122 123 127 0
h 30 276 289 290 293 296 0
h 109 276 339 340 342 345 0
h 45 110 131 132 133 137 0
h 45 277 299 300 303 306 0
h 110 277 339 341 343 346 0
h 56 121 131 139 140 143 0
h 56 289 299 308 310 312 0
h 121 289 339 349 350 352 0
h 131 299 339 355 356 358 0
h 70 111 147 148 149 153 0
h 70 278 315 316 319 322 0
h 111 278 340 341 344 347 0
h 81 122 147 155 156 159 0
h 81 290 315 324 326 328 0
h 122 290 340 349 351 353 0
h 147 315 340 364 365 367 0
h 91 132 148 161 162 165 0
h 91 300 316 330 332 334 0
h 132 300 341 355 357 359 0
h 148 316 341 364 366 368 0
h 98 139 155 161 166 168 0
h 98 308 324 330 336 337 0
h 139 308 349 355 361 362 0
h 155 324 349 364 370 371 0
h 161 330 355 364 373 374 0
h 15 175 176 177 178 183 0
h 15 279 280 281 282 287 0
h 31 175 187 188 189 193 0
h 31 279 291 292 293 297 0
h 175 279 377 378 380 383 0
h 46 176 197 198 199 203 0
h 46 280 301 302 303 307 0
h 176 280 377 379 381 384 0
h 57 187 197 205 206 209 0
h 57 291 301 309 310 313 0
h 187 291 377 387 388 390 0
h 197 301 377 393 394 396 0
h 71 177 213 214 215 219 0
h 71 281 317 318 319 323 0
h 177 281 378 379 382 385 0
h 82 188 213 221 222 225 0
h 82 292 317 325 326 329 0
h 188 292 378 387 389 391 0
h 213 317 378 402 403 405 0
h 92 198 214 227 228 231 0
h 92 302 318 331 332 335 0
h 198 302 379 393 395 397 0
h 214 318 379 402 404 406 0
h 99 205 221 227 232 234 0
h 99 309 325 331 336 338 0
h 205 309 387 393 399 400 0
h 221 325 387 402 408 409 0
h 227 331 393 402 411 412 0
h 112 178 238 239 240 244 0
h 112 282 342 343 344 348 0
h 178 282 380 381 382 386 0
h 123 189 238 246 247 250 0
h 123 293 342 350 351 354 0
h 189 293 380 388 389 392 0
h 238 342 380 415 416 418 0
h 133 199 239 252 253 256 0
h 133 303 343 356 357 360 0
h 199 303 381 394 395 398 0
h 239 343 381 415 417 419 0
h 140 206 246 252 257 259 0
h 140 310 350 356 361 363 0
h 206 310 388 394 399 401 0
h 246 350 388 415 421 422 0
h 252 356 394 415 424 425 0
h 149 215 240 261 262 265 0
h 149 319 344 365 366 369 0
h 215 319 382 403 404 407 0
h 240 344 382 416 417 420 0
h 156 222 247 261 266 268 0
h 156 326 351 365 370 372 0
h 222 326 389 403 408 410 0
h 247 351 389 416 421 423 0
h 261 365 403 416 428 429 0
h 162 228 253 262 269 271 0
h 162 332 357 366 373 375 0
h 228 332 395 404 411 413 0
h 253 357 395 417 424 426 0
h 262 366 404 417 428 430 0
h 166 232 257 266 269 272 0
h 166 336 361 370 373 376 0
h 232 336 399 408 411 414 0
h 257 361 399 421 424 427 0
h 266 370 408 421 428 431 0
h 269 373 411 424 428 432 0
h 16 17 18 19 20 21 0
h 16 32 33 34 35 36 0
h 16 433 434 436 439 443 0
h 17 47 48 49 50 51 0
h 17 433 435 437 440 444 0
h 32 47 58 59 60 61 0
h 32 433 448 449 451 454 0
h 47 433 458 459 461 464 0
h 18 72 73 74 75 76 0
h 18 434 435 438 441 445 0
h 33 72 83 84 85 86 0
h 33 434 448 450 452 455 0
h 72 434 474 475 477 480 0
h 48 73 93 94 95 96 0
h 48 435 458 460 462 465 0
h 73 435 474 476 478 481 0
h 58 83 93 100 101 102 0
h 58 448 458 468 469 471 0
h 83 448 474 484 485 487 0
h 93 458 474 490 491 493 0
h 19 113 114 115 116 117 0
h 19 436 437 438 442 446 0
h 34 113 124 125 126 127 0
h 34 436 449 450 453 456 0
h 113 436 499 500 502 505 0
h 49 114 134 135 136 137 0
h 49 437 459 460 463 466 0
h 114 437 499 501 503 506 0
h 59 124 134 141 142 143 0
h 59 449 459 468 470 472 0
h 124 449 499 509 510 512 0
h 134 459 499 515 516 518 0
h 74 115 150 151 152 153 0
h 74 438 475 476 479 482 0
h 115 438 500 501 504 507 0
h 84 125 150 157 158 159 0
h 84 450 475 484 486 488 0
h 125 450 500 509 511 513 0
h 150 475 500 524 525 527 0
h 94 135 151 163 164 165 0
h 94 460 476 490 492 494 0
h 135 460 501 515 517 519 0
h 151 476 501 524 526 528 0
h 100 141 157 163 167 168 0
h 100 468 484 490 496 497 0
h 141 468 509 515 521 522 0
h 157 484 509 524 530 531 0
h 163 490 515 524 533 534 0
h 20 179 180 181 182 183 0
h 20 439 440 441 442 447 0
h 35 179 190 191 192 193 0
h 35 439 451 452 453 457 0
h 179 439 537 538 540 543 0
h 50 180 200 201 202 203 0
h 50 440 461 462 463 467 0
h 180 440 537 539 541 544 0
h 60 190 200 207 208 209 0
h 60 451 461 469 470 473 0
h 190 451 537 547 548 550 0
h 200 461 537 553 554 556 0
h 75 181 216 217 218 219 0
h 75 441 477 478 479 483 0
h 181 441 538 539 542 545 0
h 85 191 216 223 224 225 0
h 85 452 477 485 486 489 0
h 191 452 538 547 549 551 0
h 216 477 538 562 563 565 0
h 95 201 217 229 230 231 0
h 95 462 478 491 492 495 0
h 201 462 539 553 555 557 0
h 217 478 539 562 564 566 0
h 101 207 223 229 233 234 0
h 101 469 485 491 496 498 0
h 207 469 547 553 559 560 0
h 223 485 547 562 568 569 0
h 229 491 553 562 571 572 0
h 116 182 241 242 243 244 0
h 116 442 502 503 504 508 0
h 182 442 540 541 542 546 0
h 126 192 241 248 249 250 0
h 126 453 502 510 511 514 0
h 192 453 540 548 549 552 0
h 241 502 540 575 576 578 0
h 136 202 242 254 255 256 0
h 136 463 503 516 517 520 0
h 202 463 541 554 555 558 0
h 242 503 541 575 577 579 0
h 142 208 248 254 258 259 0
h 142 470 510 516 521 523 0
h 208 470 548 554 559 561 0
h 248 510 548 575 581 582 0
h 254 516 554 575 584 585 0
h 152 218 243 263 264 265 0
h 152 479 504 525 526 529 0
h 218 479 542 563 564 567 0
h 243 504 542 576 577 580 0
h 158 224 249 263 267 268 0
h 158 486 511 525 530 532 0
h 224 486 549 563 568 570 0
h 249 511 549 576 581 583 0
h 263 525 563 576 588 589 0
h 164 230 255 264 270 271 0
h 164 492 517 526 533 535 0
h 230 492 555 564 571 573 0
h 255 517 555 577 584 586 0
h 264 526 564 577 588 590 0
h 167 233 258 267 270 272 0
h 167 496 521 530 533 536 0
h 233 496 559 568 571 574 0
h 258 521 559 581 584 587 0
h 267 530 568 581 588 591 0
h 270 533 571 584 588 592 0
h 21 283 284 285 286 287 0
h 21 443 444 445 446 447 0
h 36 283 294 295 296 297 0
h 36 443 454 455 456 457 0
h 283 443 593 594 596 599 0
h 51 284 304 305 306 307 0
h 51 444 464 465 466 467 0
h 284 444 593 595 597 600 0
h 61 294 304 311 312 313 0
h 61 454 464 471 472 473 0
h 294 454 593 603 604 606 0
h 304 464 593 609 610 612 0
h 76 285 320 321 322 323 0
h 76 445 480 481 482 483 0
h 285 445 594 595 598 601 0
h 86 295 320 327 328 329 0
h 86 455 480 487 488 489 0
h 295 455 594 603 605 607 0
h 320 480 594 618 619 621 0
h 96 305 321 333 334 335 0
h 96 465 481 493 494 495 0
h 305 465 595 609 611 613 0
h 321 481 595 618 620 622 0
h 102 311 327 333 337 338 0
h 102 471 487 493 497 498 0
h 311 471 603 609 615 616 0
h 327 487 603 618 624 625 0
h 333 493 609 618 627 628 0
h 117 286 345 346 347 348 0
h 117 446 505 506 507 508 0
h 286 446 596 597 598 602 0
h 127 296 345 352 353 354 0
h 127 456 505 512 513 514 0
h 296 456 596 604 605 608 0
h 345 505 596 631 632 634 0
h 137 306 346 358 359 360 0
h 137 466 506 518 519 520 0
h 306 466 597 610 611 614 0
h 346 506 597 631 633 635 0
h 143 312 352 358 362 363 0
h 143 472 512 518 522 523 0
h 312 472 604 610 615 617 0
h 352 512 604 631 637 638 0
h 358 518 610 631 640 641 0
h 153 322 347 367 368 369 0
h 153 482 507 527 528 529 0
h 322 482 598 619 620 623 0
h 347 507 598 632 633 636 0
h 159 328 353 367 371 372 0
h 159 488 513 527 531 532 0
h 328 488 605 619 624 626 0
h 353 513 605 632 637 639 0
h 367 527 619 632 644 645 0
h 165 334 359 368 374 375 0
h 165 494 519 528 534 535 0
h 334 494 611 620 627 629 0
h 359 519 611 633 640 642 0
h 368 528 620 633 644 646 0
h 168 337 362 371 374 376 0
h 168 497 522 531 534 536 0
h 337 497 615 624 627 630 0
h 362 522 615 637 640 643 0
h 371 531 624 637 644 647 0
h 374 534 627 640 644 648 0
h 183 287 383 384 385 386 0
h 183 447 543 544 545 546 0
h 287 447 599 600 601 602 0
h 193 297 383 390 391 392 0
h 193 457 543 550 551 552 0
h 297 457 599 606 607 608 0
h 383 543 599 649 650 652 0
h 203 307 384 396 397 398 0
h 203 467 544 556 557 558 0
h 307 467 600 612 613 614 0
h 384 544 600 649 651 653 0
h 209 313 390 396 400 401 0
h 209 473 550 556 560 561 0
h 313 473 606 612 616 617 0
h 390 550 606 649 655 656 0
h 396 556 612 649 658 659 0
h 219 323 385 405 406 407 0
h 219 483 545 565 566 567 0
h 323 483 601 621 622 623 0
h 385 545 601 650 651 654 0
h 225 329 391 405 409 410 0
h 225 489 551 565 569 570 0
h 329 489 607 621 625 626 0
h 391 551 607 650 655 657 0
h 405 565 621 650 662 663 0
h 231 335 397 406 412 413 0
h 231 495 557 566 572 573 0
h 335 495 613 622 628 629 0
h 397 557 613 651 658 660 0
h 406 566 622 651 662 664 0
h 234 338 400 409 412 414 0
h 234 498 560 569 572 574 0
h 338 498 616 625 628 630 0
h 400 560 616 655 658 661 0
h 409 569 625 655 662 665 0
h 412 572 628 658 662 666 0
h 244 348 386 418 419 420 0
h 244 508 546 578 579 580 0
h 348 508 602 634 635 636 0
h 386 546 602 652 653 654 0
h 250 354 392 418 422 423 0
h 250 514 552 578 582 583 0
h 354 514 608 634 638 639 0
h 392 552 608 652 656 657 0
h 418 578 634 652 667 668 0
h 256 360 398 419 425 426 0
h 256 520 558 579 585 586 0
h 360 520 614 635 641 642 0
h 398 558 614 653 659 660 0
h 419 579 635 653 667 669 0
h 259 363 401 422 425 427 0
h 259 523 561 582 585 587 0
h 363 523 617 638 641 643 0
h 401 561 617 656 659 661 0
h 422 582 638 656 667 670 0
h 425 585 641 659 667 671 0
h 265 369 407 420 429 430 0
h 265 529 567 580 589 590 0
h 369 529 623 636 645 646 0
h 407 567 623 654 663 664 0
h 420 580 636 654 668 669 0
h 268 372 410 423 429 431 0
h 268 532 570 583 589 591 0
h 372 532 626 639 645 647 0
h 410 570 626 657 663 665 0
h 423 583 639 657 668 670 0
h 429 589 645 663 668 672 0
h 271 375 413 426 430 432 0
h 271 535 573 586 590 592 0
h 375 535 629 642 646 648 0
h 413 573 629 660 664 666 0
h 426 586 642 660 669 671 0
h 430 590 646 664 669 672 0
h 272 376 414 427 431 432 0
h 272 536 574 587 591 592 0
h 376 536 630 643 647 648 0
h 414 574 630 661 665 666 0
h 427 587 643 661 670 671 0
h 431 591 647 665 670 672 0
h 432 592 648 666 671 672 0
